(set-logic QF_S)
(declare-fun var0 () String)
(assert (str.in.re var0 (re.++ (re.union (re.+ (str.to.re "0")) (re.+ (str.to.re "1"))) (re.++ (re.union (re.* (str.to.re "2")) (re.* (str.to.re "333"))) (re.++ (re.union (re.union (str.to.re "4") (str.to.re "55")) (re.union (str.to.re "6") (str.to.re "7"))) (re.++ (re.+ (re.* (str.to.re "88"))) (re.++ (re.union (re.* (str.to.re "999")) (re.* (str.to.re "a"))) (re.++ (re.union (re.+ (str.to.re "b")) (re.+ (str.to.re "ccc"))) (re.++ (re.+ (re.+ (str.to.re "dd"))) (re.union (re.+ (str.to.re "e")) (re.+ (str.to.re "fff"))))))))))))
(check-sat)